30
5
3005005
0
0
52 65 7 77 42 
1
0
71 92 82 63 75 
2
0
77 56 93 57 81 
3
0
94 11 58 5 33 
4
0
22 74 48 27 39 
5
0
45 49 41 81 43 
6
0
31 6 57 77 8 
7
0
86 29 80 68 17 
8
0
10 30 31 75 11 
9
0
82 53 34 89 89 
10
0
66 9 33 14 38 
11
0
79 52 8 4 61 
12
0
2 12 20 61 60 
13
0
37 6 98 64 78 
14
0
48 57 57 30 12 
15
0
73 44 3 56 58 
16
0
26 49 47 22 30 
17
0
9 35 62 70 41 
18
0
94 81 17 45 74 
19
0
26 46 51 25 9 
20
0
44 64 13 86 33 
21
0
44 34 58 16 30 
22
0
75 36 52 24 92 
23
0
32 43 62 58 19 
24
0
73 6 97 25 73 
25
0
61 97 12 25 95 
26
0
95 17 35 21 13 
27
0
75 63 68 37 36 
28
0
15 89 92 3 12 
29
0
24 11 94 57 66 
